s td 110 12 121
b 1 1 2 12
b 2 10 11 22
b 3 100 111 112
b 4 110 120 121
b 5 2 3 12 13
b 6 9 10 21 22
b 7 3 4 14 26 38 50 60 72 84 96 108 120
b 8 4 14 26 38 50 60 62 72 84 96 108 120
b 9 4 14 26 38 50 62 72 74 84 96 108 120
b 10 4 14 26 38 50 62 74 84 86 96 108 120
b 11 4 14 26 38 50 62 74 86 96 98 108 120
b 12 4 14 26 38 50 62 74 86 98 99 108 120
b 13 4 14 16 26 38 50 62 74 86 98 99
b 14 4 16 26 28 38 50 62 74 86 98 99
b 15 4 16 28 38 50 62 74 86 87 98 99
b 16 4 16 28 38 50 62 74 75 86 87 99
b 17 4 16 28 38 50 62 63 74 75 87 99
b 18 4 16 28 38 50 51 62 63 75 87 99
b 19 4 16 28 38 39 50 51 63 75 87 99
b 20 4 16 28 39 51 63 75 77 87 99
b 21 4 16 28 39 51 63 65 75 77 87
b 22 4 16 28 39 51 53 63 65 75 77
b 23 4 16 28 39 41 51 53 63 65 77
b 24 4 16 28 29 39 41 51 53 65 77
b 25 4 6 16 28 29 41 53 65 77
b 26 4 5 6 16
b 27 6 16 18 28 29 41 53 65 77
b 28 6 18 29 41 53 55 65 77
b 29 6 18 29 41 43 53 55 65
b 30 6 18 29 41 42 43 53 55
b 31 6 18 29 30 41 42 43 55
b 32 6 8 18 30 42 43 55
b 33 6 7 8 18
b 34 8 18 20 30 42 43 55
b 35 8 20 30 31 42 43 55
b 36 8 20 31 33 43 55
b 37 8 20 31 32 33 43
b 38 8 20 21 32 33
b 39 8 9 20 21 33
b 40 9 21 22 33
b 41 33 43 44 55
b 42 8 18 19 20 30
b 43 43 53 54 55 65
b 44 55 65 66 77
b 45 6 16 17 18 28
b 46 29 39 40 41 51
b 47 41 51 52 53 63
b 48 53 63 64 65 75
b 49 65 75 76 77 87
b 50 77 87 88 99
b 51 16 26 27 28 38
b 52 4 14 15 16 26
b 53 98 99 108 109 120
b 54 86 96 97 98 108
b 55 74 84 85 86 96
b 56 62 72 73 74 84
b 57 50 60 61 62 72
b 58 3 14 26 38 48 50 60 72 84 96 108 120
b 59 3 14 26 36 38 48 60 72 84 96 108 120
b 60 3 14 24 26 36 48 60 72 84 96 108 120
b 61 3 14 24 34 36 48 60 72 84 96 108 120
b 62 3 12 14 24 34
b 63 3 12 13 14 24
b 64 12 23 24 34
b 65 24 34 36 46 48 60 72 84 96 108 120
b 66 24 34 35 36 46
b 67 34 36 46 48 58 60 72 84 96 108 120
b 68 34 46 48 58 60 70 72 84 96 108 120
b 69 34 46 58 60 70 72 82 84 96 108 120
b 70 34 46 58 70 72 82 84 94 96 108 120
b 71 34 46 58 70 82 84 94 96 106 108 120
b 72 34 46 58 70 82 94 96 106 108 118 120
b 73 34 46 56 58 70 82 94 106 118
b 74 34 45 46 56
b 75 46 56 58 68 70 82 94 106 118
b 76 46 56 57 58 68
b 77 56 58 68 70 80 82 94 106 118
b 78 56 68 70 80 82 92 94 106 118
b 79 56 68 80 82 92 94 104 106 118
b 80 56 68 80 92 94 104 106 115 118
b 81 56 68 80 92 103 104 115
b 82 56 68 80 91 92 103 115
b 83 56 68 79 80 91 103 115
b 84 56 67 68 79 91 103 115
b 85 67 79 89 91 103 115
b 86 67 78 79 89
b 87 79 89 91 103 113 115
b 88 79 89 91 101 103 113
b 89 79 89 90 91 101
b 90 91 101 102 103 113
b 91 89 101 112 113
b 92 103 113 114 115
b 93 94 104 106 115 116 118
b 94 94 104 105 106 116
b 95 106 116 117 118
b 96 82 92 93 94 104
b 97 70 80 81 82 92
b 98 58 68 69 70 80
b 99 96 106 107 108 118
b 100 108 118 119 120
b 101 84 94 95 96 106
b 102 72 82 83 84 94
b 103 60 70 71 72 82
b 104 48 58 59 60 70
b 105 36 46 47 48 58
b 106 14 24 25 26 36
b 107 26 36 37 38 48
b 108 38 48 49 50 60
b 109 89 100 101 112
b 110 99 109 110 120
1 5
2 6
3 109
4 110
5 63
6 40
7 8
7 58
8 9
8 57
9 10
9 56
10 11
10 55
11 12
11 54
12 13
12 53
13 14
13 52
14 15
14 51
15 16
16 17
17 18
18 19
19 20
20 21
20 50
21 22
21 49
22 23
22 48
23 24
23 47
24 25
24 46
25 26
25 27
27 28
27 45
28 29
28 44
29 30
29 43
30 31
31 32
32 33
32 34
34 35
34 42
35 36
36 37
36 41
37 38
38 39
39 40
53 110
58 59
58 108
59 60
59 107
60 61
60 106
61 62
61 65
62 63
62 64
65 66
65 67
67 68
67 105
68 69
68 104
69 70
69 103
70 71
70 102
71 72
71 101
72 73
72 99
72 100
73 74
73 75
75 76
75 77
77 78
77 98
78 79
78 97
79 80
79 96
80 81
80 93
81 82
82 83
83 84
84 85
85 86
85 87
87 88
87 92
88 89
88 90
88 91
91 109
93 94
93 95
